10
40
2274
2174
1907
1848
713
624
462
380
337
154
85	353
233	520
420	619
275	329
282	310
275	299
718	750
566	569
459	456
958	912
682	646
932	877
828	775
603	556
766	668
579	500
683	535
239	182
850	516
795	481
93	353
55	208
239	430
334	599
352	431
589	696
760	844
711	752
610	621
644	636
608	591
589	569
424	391
740	644
678	562
570	472
876	603
528	345
840	527
289	176
